
Gurobi 10.0.3 (linux64, gurobi_cl) logging started Fri Nov 10 17:26:42 2023

Set parameter Username
Set parameter TimeLimit to value 3600
Set parameter LogFile to value "RCPSP_1530.log"
Set parameter Threads to value 32
Academic license - for non-commercial use only - expires 2024-11-06
Using license file /home/jrivera6/gurobi-licenses/v1003/compute-0-36/gurobi.lic

Gurobi Optimizer version 10.0.3 build v10.0.3rc0 (linux64)
Copyright (c) 2023, Gurobi Optimization, LLC

Read MPS format model from file RCPSP_1530.mps
Reading time = 1.03 seconds
RCPSP_1530: 75214 rows, 29890 columns, 251629 nonzeros

CPU model: Intel(R) Xeon(R) Gold 6130 CPU @ 2.10GHz, instruction set [SSE2|AVX|AVX2|AVX512]
Thread count: 32 physical cores, 32 logical processors, using up to 32 threads

Optimize a model with 75214 rows, 29890 columns and 251629 nonzeros
Model fingerprint: 0x5d107366
Variable types: 122 continuous, 29768 integer (29768 binary)
Coefficient statistics:
  Matrix range     [1e+00, 7e+02]
  Objective range  [1e+00, 1e+00]
  Bounds range     [1e+00, 1e+00]
  RHS range        [1e+00, 7e+02]
Presolve removed 11361 rows and 1900 columns (presolve time = 5s) ...
Presolve removed 11391 rows and 1910 columns
Presolve time: 5.45s
Presolved: 63823 rows, 27980 columns, 223864 nonzeros
Variable types: 121 continuous, 27859 integer (27859 binary)

Deterministic concurrent LP optimizer: primal and dual simplex (primal and dual model)
Showing first log only...

Root relaxation presolved: 63823 rows, 27980 columns, 223864 nonzeros


Root simplex log...

Iteration    Objective       Primal Inf.    Dual Inf.      Time
       0    8.4040264e+01   5.809500e-03   2.100371e+08      8s
    4931    8.4000000e+01   0.000000e+00   0.000000e+00     10s
Concurrent spin time: 2.69s

Solved with dual simplex (dual model)

Root relaxation: objective 8.400000e+01, 31274 iterations, 6.49 seconds (0.45 work units)
Total elapsed time = 18.86s
Total elapsed time = 21.16s

    Nodes    |    Current Node    |     Objective Bounds      |     Work
 Expl Unexpl |  Obj  Depth IntInf | Incumbent    BestBd   Gap | It/Node Time

     0     0   84.00000    0   58          -   84.00000      -     -   24s
     0     0   84.00000    0  387          -   84.00000      -     -   57s
     0     0   84.00000    0 1736          -   84.00000      -     -   80s
     0     0   84.00000    0   81          -   84.00000      -     -  145s
     0     0   84.00000    0  310          -   84.00000      -     -  172s
     0     0   84.00000    0   51          -   84.00000      -     -  200s
     0     0   84.00000    0   83          -   84.00000      -     -  226s
     0     0   84.00000    0   49          -   84.00000      -     -  247s
     0     0   84.00000    0  252          -   84.00000      -     -  249s
     0     0   84.00000    0   36          -   84.00000      -     -  294s
     0     0   84.00000    0   44          -   84.00000      -     -  300s
     0     0   84.00000    0   64          -   84.00000      -     -  362s
     0     0   84.00000    0   74          -   84.00000      -     -  385s
     0     0   84.00000    0   60          -   84.00000      -     -  418s
     0     0   84.00000    0  451          -   84.00000      -     -  422s
     0     0   84.00000    0   16          -   84.00000      -     -  445s
     0     0   84.00000    0   28          -   84.00000      -     -  473s
     0     0   84.00000    0   24          -   84.00000      -     -  479s
     0     2   84.00000    0   19          -   84.00000      -     -  514s
     1     4   84.00000    1   19          -   84.00000      -  3231  523s
     3     8   84.00000    2   32          -   84.00000      -  1086  531s
     7    16   84.00000    3  834          -   84.00000      -   624  572s
    15    32   84.00000    4  589          -   84.00000      -   592  596s
    31    63   84.00000    5  492          -   84.00000      -   653  646s
    63    95   84.00000    6  536          -   84.00000      -   478  820s
    69    95   84.00000    6 1470          -   84.00000      -   513 1059s
    71    95   84.00000    6  512          -   84.00000      -   512 1095s
    78    95   94.00000    6 1244          -   84.00000      -   505 1163s
    95   121   84.00000    7  111          -   84.00000      -   525 4576s
   109   121   84.00000    7 1054          -   84.00000      -   463 4599s
   113   121   84.00000    7 1070          -   84.00000      -   457 4606s

Cutting planes:
  Gomory: 8
  Cover: 62
  Implied bound: 318
  MIR: 1086
  StrongCG: 3
  Zero half: 1
  RLT: 358
  Relax-and-lift: 96
  PSD: 1

Explored 122 nodes (225410 simplex iterations) in 4670.16 seconds (59.66 work units)
Thread count was 32 (of 32 available processors)

Solution count 0

Time limit reached
Best objective -, best bound 8.400000000000e+01, gap -

Unable to retrieve attribute 'X'

